row=6;
column=6;
left=[3, 0, 0, 0, 0, 0];
right=[2, 3, 0, 0, 0, 0];
top=[0, 4, 0, 0, 0, 0];
bottom=[0, 2, 4, 0, 0, 0];
Board=[|0,2,5,4,6,0|0,3,0,0,5,0|0,0,6,0,0,5|0,0,0,5,0,0|5,0,0,3,1,4|6,5,0,0,4,0|]